
Gurobi 9.0.2 (win64) logging started Sat Oct 10 16:20:00 2020

Changed value of parameter logfile to result\v6.2-20201010T1221\scenario_2030_eff070_cab3000.log
   Prev:   Default: 
Gurobi Optimizer version 9.0.2 build v9.0.2rc0 (win64)
Optimize a model with 1384150 rows, 884815 columns and 3912197 nonzeros
Model fingerprint: 0xce4eecfe
Coefficient statistics:
  Matrix range     [1e-07, 3e+05]
  Objective range  [1e+00, 1e+00]
  Bounds range     [0e+00, 0e+00]
  RHS range        [2e-05, 3e+08]
Warning: Model contains large matrix coefficient range
         Consider reformulating model or setting NumericFocus parameter
         to avoid numerical issues.

Concurrent LP optimizer: primal simplex, dual simplex, and barrier
Showing barrier log only...

Presolve removed 1129315 rows and 656241 columns
Presolve time: 3.48s
Presolved: 254835 rows, 342440 columns, 891938 nonzeros

Ordering time: 0.13s

Barrier statistics:
 Dense cols : 9
 AA' NZ     : 8.194e+05
 Factor NZ  : 4.461e+06 (roughly 300 MBytes of memory)
 Factor Ops : 1.125e+08 (less than 1 second per iteration)
 Threads    : 30

                  Objective                Residual
Iter       Primal          Dual         Primal    Dual     Compl     Time
   0  -1.99127933e+16 -1.58515985e+15  5.97e+06 1.56e+04  2.39e+12     4s
   1  -3.04704774e+15 -1.58901963e+15  9.05e+05 4.72e+06  7.82e+11     4s
   2  -1.24323863e+15 -1.31594773e+15  3.67e+05 8.62e+05  2.21e+11     5s
   3  -5.37613801e+14 -1.06588978e+15  1.55e+05 2.46e+05  8.60e+10     5s
   4  -1.23941924e+14 -6.84341017e+14  3.31e+04 6.88e+04  1.97e+10     5s
   5  -3.84883997e+13 -4.31544791e+14  1.00e+04 3.05e+04  7.76e+09     6s
   6  -1.79450395e+13 -2.77930026e+14  4.94e+03 1.26e+04  3.48e+09     6s
   7  -7.73772133e+12 -1.58475077e+14  2.28e+03 2.66e+03  1.14e+09     6s
   8  -1.83875116e+12 -8.35002453e+13  6.86e+02 4.38e+02  2.98e+08     6s
   9   5.99328363e+11 -1.70246496e+13  5.57e+00 5.88e+00  2.67e+07     7s
  10   2.67268916e+11 -1.92417664e+12  1.05e+00 3.56e-01  3.24e+06     7s
  11   1.32052279e+11 -7.91643713e+11  4.39e-01 1.70e-08  1.35e+06     7s
  12   6.84846967e+10 -3.82641017e+11  2.00e-01 8.08e-09  6.58e+05     8s
  13   5.47588447e+10 -2.50186329e+11  1.56e-01 5.59e-09  4.45e+05     8s
  14   3.10722589e+10 -1.86073273e+11  8.04e-02 7.45e-09  3.16e+05     8s
  15   1.93337200e+10 -1.28102162e+11  4.12e-02 5.59e-09  2.14e+05     8s
  16   1.77309740e+10 -7.24589997e+10  3.60e-02 5.59e-09  1.31e+05     9s
  17   1.68446512e+10 -5.47476887e+10  3.10e-02 5.59e-09  1.04e+05     9s
  18   1.10321780e+10 -7.34771465e+09  9.60e-03 9.31e-09  2.68e+04     9s
  19   8.39850234e+09  1.43888393e+09  3.11e-03 7.45e-09  1.01e+04    10s
  20   7.98512088e+09  4.17604090e+09  2.27e-03 5.59e-09  5.54e+03    10s
  21   7.75079085e+09  4.61681811e+09  1.81e-03 5.59e-09  4.56e+03    10s
  22   7.67541014e+09  4.91661730e+09  1.66e-03 5.59e-09  4.01e+03    10s
  23   7.65411330e+09  5.45209597e+09  1.62e-03 3.73e-09  3.20e+03    11s
  24   7.32226963e+09  5.61333465e+09  1.01e-03 4.66e-09  2.48e+03    11s
  25   7.19378042e+09  5.92632915e+09  7.54e-04 3.73e-09  1.84e+03    11s
  26   6.98236568e+09  6.31975174e+09  3.43e-04 2.79e-09  9.61e+02    12s
  27   6.89123830e+09  6.48903986e+09  1.80e-04 2.79e-09  5.83e+02    12s
  28   6.87147260e+09  6.51063789e+09  1.48e-04 2.79e-09  5.22e+02    12s
  29   6.85030541e+09  6.53613629e+09  1.14e-04 2.79e-09  4.55e+02    13s
  30   6.83190930e+09  6.55991509e+09  8.31e-05 1.86e-09  3.94e+02    13s
  31   6.81725035e+09  6.59280840e+09  5.96e-05 1.86e-09  3.25e+02    13s
  32   6.80153393e+09  6.68648746e+09  3.59e-05 1.86e-09  1.66e+02    13s
  33   6.79408752e+09  6.70120622e+09  2.56e-05 1.86e-09  1.34e+02    14s
  34   6.78609810e+09  6.71471456e+09  1.42e-05 1.86e-09  1.03e+02    14s
  35   6.78005967e+09  6.73351253e+09  6.32e-06 1.86e-09  6.72e+01    15s
  36   6.77720878e+09  6.73988585e+09  3.13e-06 1.86e-09  5.39e+01    15s
  37   6.77701943e+09  6.75412804e+09  2.94e-06 1.86e-09  3.31e+01    15s
  38   6.77597062e+09  6.75534641e+09  1.94e-06 1.86e-09  2.98e+01    15s
  39   6.77511567e+09  6.76252705e+09  1.05e-06 1.86e-09  1.82e+01    16s
  40   6.77435488e+09  6.76954430e+09  3.46e-07 2.79e-09  6.95e+00    16s
  41   6.77407268e+09  6.77326712e+09  1.87e-07 2.79e-09  1.16e+00    16s
  42   6.77394597e+09  6.77382588e+09  9.33e-07 2.79e-09  1.74e-01    17s
  43   6.77391694e+09  6.77388338e+09  2.73e-07 2.79e-09  4.85e-02    17s
  44   6.77390470e+09  6.77390205e+09  5.74e-09 2.79e-09  3.83e-03    17s
  45   6.77390426e+09  6.77390426e+09  9.55e-10 3.26e-09  6.27e-07    17s
  46   6.77390426e+09  6.77390426e+09  3.24e-04 3.49e-09  6.27e-07    18s

Barrier solved model in 46 iterations and 17.77 seconds
Optimal objective 6.77390426e+09

Crossover log...

   75130 DPushes remaining with DInf 0.0000000e+00                18s
       0 DPushes remaining with DInf 0.0000000e+00                20s
Warning: Markowitz tolerance tightened to 0.5

   62100 PPushes remaining with PInf 9.4482419e-04                20s
   36322 PPushes remaining with PInf 0.0000000e+00                24s
   21767 PPushes remaining with PInf 0.0000000e+00                27s
    2895 PPushes remaining with PInf 0.0000000e+00                31s
       0 PPushes remaining with PInf 0.0000000e+00                32s

  Push phase complete: Pinf 0.0000000e+00, Dinf 2.9077997e-08     32s

Iteration    Objective       Primal Inf.    Dual Inf.      Time
   90919    6.7739043e+09   0.000000e+00   0.000000e+00     34s

Solved with barrier
Solved in 90919 iterations and 34.45 seconds
Optimal objective  6.773904261e+09
Warning: unscaled primal violation = 0.000865149 and residual = 0.000865149
